[runlim] version:		1.10
[runlim] time limit:		311040000 seconds
[runlim] real time limit:	600 seconds
[runlim] space limit:		14000 MB
[runlim] argv[0]:		python3
[runlim] argv[1]:		cp.py
[runlim] argv[2]:		graph10
[runlim] start:			Sun Jan 25 07:48:50 2026
[runlim] main pid:		10749
[runlim] sample:		10.0 time, 10.2 real, 611.2 MB
[runlim] sample:		20.0 time, 20.2 real, 1530.4 MB
[runlim] sample:		30.0 time, 30.2 real, 1865.0 MB
[runlim] sample:		40.0 time, 40.2 real, 4686.4 MB
Building CP model...
Solving CP Optimizer...
 ! --------------------------------------------------- CP Optimizer 22.1.1.0 --
 ! Minimization problem - 26638 variables, 1793964 constraints
 ! Presolve      : 1794646 extractables eliminated
 ! LogVerbosity         = Terse
 ! Initial process time : 15.05s (14.99s extraction + 0.07s propagation)
 !  . Log search space  : 26638.0 (before), 26638.0 (after)
 !  . Memory usage      : 234.2 MB (before), 234.2 MB (after)
 ! Using parallel search with 12 workers.
 ! ----------------------------------------------------------------------------
 !          Best Branches  Non-fixed    W       Branch decision
                        0      26638                 -
 + New bound is 0
[runlim] sample:		85.7 time, 50.2 real, 7701.2 MB
[runlim] end:			Sun Jan 25 07:49:44 2026
[runlim] status:		out of memory
[runlim] result:		3
[runlim] children:		397
[runlim] real:			54.09 seconds
[runlim] time:			129.57 seconds
[runlim] space:			14001.2 MB
[runlim] samples:		538
